GLPSOL--GLPK LP/MIP Solver 5.0
Parameter(s) specified in the command line:
 --lp ../modeles/4_319.lp --log 4_319.log
Reading problem data from '../modeles/4_319.lp'...
1293 rows, 2560 columns, 8952 non-zeros
1276 integer variables, all of which are binary
3863 lines were read
GLPK Integer Optimizer 5.0
1293 rows, 2560 columns, 8952 non-zeros
1276 integer variables, all of which are binary
Preprocessing...
1256 constraint coefficient(s) were reduced
1293 rows, 2556 columns, 8948 non-zeros
1276 integer variables, all of which are binary
Scaling...
 A: min|aij| =  3.931e-05  max|aij| =  4.000e+00  ratio =  1.018e+05
GM: min|aij| =  5.599e-02  max|aij| =  1.786e+01  ratio =  3.190e+02
EQ: min|aij| =  3.135e-03  max|aij| =  1.000e+00  ratio =  3.190e+02
2N: min|aij| =  2.516e-03  max|aij| =  1.752e+00  ratio =  6.964e+02
Constructing initial basis...
Size of triangular part is 1293
Solving LP relaxation...
GLPK Simplex Optimizer 5.0
1293 rows, 2556 columns, 8948 non-zeros
      0: obj =   8.000000000e+00 inf =   1.950e+01 (9)
     75: obj =   4.999262972e-01 inf =   0.000e+00 (0)
*   247: obj =  -1.999853056e+00 inf =   1.962e-14 (0)
OPTIMAL LP SOLUTION FOUND
Integer optimization begins...
Long-step dual simplex will be used
+   247: mip =     not found yet >=              -inf        (1; 0)
+   253: >>>>>  -1.999853056e+00 >=  -1.999853056e+00 < 0.1% (4; 0)
+   253: mip =  -1.999853056e+00 >=     tree is empty   0.0% (0; 7)
INTEGER OPTIMAL SOLUTION FOUND
Time used:   0.0 secs
Memory used: 3.7 Mb (3902084 bytes)
